[[29, 16, 50, 20, 23, 22, 32, 49, 35, 36, 34, 44, 46, 37, 39, 40, 38, 24, 48, 5, 15, 6, 4, 25, 12, 28, 27, 26, 47, 13, 14], [52, 11, 51, 33, 43, 10, 9, 8, 41, 19, 45, 3, 18, 31, 17, 21, 42, 7, 2, 30]]